c colouring generated by benchmark framework
p edge 1000 449449
v 1 74
v 2 290
v 3 0
v 4 91
v 5 21
v 6 253
v 7 104
v 8 168
v 9 123
v 10 167
v 11 295
v 12 278
v 13 81
v 14 90
v 15 74
v 16 0
v 17 163
v 18 183
v 19 207
v 20 171
v 21 295
v 22 79
v 23 75
v 24 62
v 25 293
v 26 83
v 27 116
v 28 35
v 29 9
v 30 15
v 31 164
v 32 30
v 33 72
v 34 185
v 35 174
v 36 54
v 37 16
v 38 197
v 39 118
v 40 314
v 41 270
v 42 107
v 43 259
v 44 238
v 45 22
v 46 269
v 47 82
v 48 222
v 49 221
v 50 298
v 51 48
v 52 283
v 53 182
v 54 271
v 55 233
v 56 167
v 57 170
v 58 176
v 59 91
v 60 132
v 61 50
v 62 59
v 63 100
v 64 310
v 65 191
v 66 2
v 67 175
v 68 205
v 69 95
v 70 64
v 71 236
v 72 187
v 73 226
v 74 103
v 75 263
v 76 257
v 77 131
v 78 100
v 79 29
v 80 139
v 81 171
v 82 244
v 83 230
v 84 85
v 85 27
v 86 55
v 87 155
v 88 53
v 89 266
v 90 205
v 91 240
v 92 251
v 93 177
v 94 13
v 95 103
v 96 56
v 97 112
v 98 76
v 99 189
v 100 12
v 101 11
v 102 145
v 103 44
v 104 151
v 105 183
v 106 257
v 107 47
v 108 236
v 109 114
v 110 2
v 111 148
v 112 126
v 113 206
v 114 184
v 115 72
v 116 67
v 117 169
v 118 235
v 119 95
v 120 199
v 121 252
v 122 244
v 123 211
v 124 97
v 125 41
v 126 211
v 127 123
v 128 249
v 129 209
v 130 132
v 131 126
v 132 252
v 133 301
v 134 2
v 135 129
v 136 197
v 137 91
v 138 22
v 139 249
v 140 186
v 141 152
v 142 76
v 143 287
v 144 179
v 145 83
v 146 164
v 147 36
v 148 164
v 149 10
v 150 281
v 151 86
v 152 311
v 153 180
v 154 141
v 155 300
v 156 7
v 157 113
v 158 54
v 159 33
v 160 33
v 161 122
v 162 66
v 163 67
v 164 12
v 165 312
v 166 156
v 167 157
v 168 36
v 169 253
v 170 21
v 171 105
v 172 283
v 173 220
v 174 238
v 175 286
v 176 158
v 177 274
v 178 231
v 179 144
v 180 124
v 181 71
v 182 220
v 183 102
v 184 92
v 185 303
v 186 203
v 187 193
v 188 170
v 189 174
v 190 26
v 191 108
v 192 269
v 193 251
v 194 67
v 195 160
v 196 105
v 197 104
v 198 109
v 199 166
v 200 16
v 201 56
v 202 165
v 203 237
v 204 79
v 205 65
v 206 136
v 207 233
v 208 181
v 209 234
v 210 203
v 211 272
v 212 234
v 213 191
v 214 236
v 215 243
v 216 207
v 217 86
v 218 177
v 219 239
v 220 34
v 221 173
v 222 186
v 223 87
v 224 136
v 225 242
v 226 128
v 227 299
v 228 269
v 229 165
v 230 241
v 231 101
v 232 138
v 233 210
v 234 168
v 235 163
v 236 127
v 237 48
v 238 13
v 239 227
v 240 264
v 241 278
v 242 110
v 243 42
v 244 280
v 245 289
v 246 23
v 247 194
v 248 89
v 249 20
v 250 98
v 251 75
v 252 167
v 253 141
v 254 159
v 255 266
v 256 9
v 257 38
v 258 167
v 259 153
v 260 156
v 261 191
v 262 63
v 263 85
v 264 36
v 265 96
v 266 74
v 267 222
v 268 59
v 269 46
v 270 309
v 271 8
v 272 256
v 273 52
v 274 243
v 275 115
v 276 216
v 277 254
v 278 70
v 279 214
v 280 77
v 281 34
v 282 66
v 283 289
v 284 296
v 285 46
v 286 176
v 287 57
v 288 228
v 289 17
v 290 122
v 291 154
v 292 81
v 293 135
v 294 274
v 295 92
v 296 4
v 297 297
v 298 275
v 299 154
v 300 234
v 301 84
v 302 284
v 303 249
v 304 152
v 305 282
v 306 23
v 307 173
v 308 17
v 309 244
v 310 122
v 311 119
v 312 133
v 313 253
v 314 291
v 315 219
v 316 283
v 317 33
v 318 153
v 319 150
v 320 147
v 321 159
v 322 262
v 323 168
v 324 304
v 325 308
v 326 37
v 327 51
v 328 14
v 329 228
v 330 112
v 331 228
v 332 193
v 333 106
v 334 140
v 335 51
v 336 287
v 337 240
v 338 311
v 339 24
v 340 40
v 341 94
v 342 313
v 343 67
v 344 138
v 345 260
v 346 222
v 347 255
v 348 212
v 349 291
v 350 150
v 351 226
v 352 59
v 353 279
v 354 184
v 355 243
v 356 186
v 357 299
v 358 161
v 359 288
v 360 116
v 361 213
v 362 113
v 363 263
v 364 137
v 365 207
v 366 248
v 367 137
v 368 306
v 369 63
v 370 18
v 371 296
v 372 240
v 373 242
v 374 232
v 375 208
v 376 203
v 377 285
v 378 61
v 379 12
v 380 162
v 381 7
v 382 172
v 383 111
v 384 104
v 385 129
v 386 256
v 387 143
v 388 77
v 389 46
v 390 276
v 391 177
v 392 252
v 393 169
v 394 271
v 395 106
v 396 198
v 397 49
v 398 270
v 399 6
v 400 134
v 401 233
v 402 115
v 403 101
v 404 266
v 405 57
v 406 20
v 407 98
v 408 279
v 409 82
v 410 308
v 411 208
v 412 90
v 413 47
v 414 40
v 415 223
v 416 206
v 417 147
v 418 24
v 419 200
v 420 27
v 421 94
v 422 73
v 423 172
v 424 62
v 425 300
v 426 73
v 427 143
v 428 267
v 429 173
v 430 260
v 431 135
v 432 163
v 433 145
v 434 198
v 435 7
v 436 194
v 437 148
v 438 224
v 439 5
v 440 93
v 441 118
v 442 93
v 443 182
v 444 110
v 445 217
v 446 64
v 447 29
v 448 95
v 449 254
v 450 188
v 451 171
v 452 241
v 453 268
v 454 245
v 455 18
v 456 80
v 457 12
v 458 223
v 459 248
v 460 137
v 461 260
v 462 8
v 463 45
v 464 182
v 465 315
v 466 96
v 467 156
v 468 32
v 469 171
v 470 14
v 471 194
v 472 293
v 473 51
v 474 260
v 475 34
v 476 212
v 477 226
v 478 195
v 479 55
v 480 134
v 481 280
v 482 36
v 483 126
v 484 94
v 485 261
v 486 229
v 487 175
v 488 43
v 489 126
v 490 35
v 491 78
v 492 80
v 493 294
v 494 202
v 495 85
v 496 141
v 497 85
v 498 107
v 499 161
v 500 22
v 501 35
v 502 195
v 503 180
v 504 307
v 505 151
v 506 56
v 507 45
v 508 197
v 509 46
v 510 123
v 511 189
v 512 10
v 513 108
v 514 203
v 515 103
v 516 29
v 517 273
v 518 274
v 519 15
v 520 129
v 521 68
v 522 22
v 523 246
v 524 189
v 525 295
v 526 255
v 527 81
v 528 160
v 529 224
v 530 288
v 531 155
v 532 302
v 533 18
v 534 194
v 535 225
v 536 264
v 537 275
v 538 217
v 539 26
v 540 241
v 541 70
v 542 58
v 543 58
v 544 188
v 545 76
v 546 261
v 547 293
v 548 230
v 549 239
v 550 139
v 551 231
v 552 120
v 553 229
v 554 109
v 555 37
v 556 79
v 557 14
v 558 80
v 559 30
v 560 218
v 561 305
v 562 276
v 563 98
v 564 268
v 565 228
v 566 110
v 567 239
v 568 225
v 569 143
v 570 225
v 571 277
v 572 119
v 573 61
v 574 275
v 575 76
v 576 265
v 577 247
v 578 304
v 579 14
v 580 285
v 581 19
v 582 262
v 583 157
v 584 217
v 585 204
v 586 24
v 587 200
v 588 159
v 589 187
v 590 128
v 591 313
v 592 261
v 593 261
v 594 60
v 595 98
v 596 227
v 597 38
v 598 3
v 599 215
v 600 132
v 601 109
v 602 178
v 603 88
v 604 5
v 605 286
v 606 158
v 607 204
v 608 23
v 609 28
v 610 154
v 611 55
v 612 60
v 613 183
v 614 207
v 615 303
v 616 246
v 617 196
v 618 263
v 619 128
v 620 238
v 621 20
v 622 177
v 623 67
v 624 292
v 625 88
v 626 66
v 627 93
v 628 262
v 629 63
v 630 27
v 631 31
v 632 310
v 633 210
v 634 25
v 635 286
v 636 99
v 637 302
v 638 102
v 639 218
v 640 140
v 641 115
v 642 83
v 643 199
v 644 5
v 645 268
v 646 146
v 647 179
v 648 271
v 649 190
v 650 131
v 651 186
v 652 3
v 653 69
v 654 183
v 655 280
v 656 141
v 657 97
v 658 89
v 659 130
v 660 259
v 661 151
v 662 28
v 663 99
v 664 50
v 665 102
v 666 285
v 667 152
v 668 302
v 669 245
v 670 87
v 671 205
v 672 258
v 673 190
v 674 113
v 675 190
v 676 133
v 677 71
v 678 128
v 679 72
v 680 54
v 681 108
v 682 242
v 683 215
v 684 153
v 685 4
v 686 192
v 687 3
v 688 188
v 689 201
v 690 172
v 691 43
v 692 50
v 693 25
v 694 145
v 695 121
v 696 1
v 697 267
v 698 9
v 699 90
v 700 247
v 701 41
v 702 292
v 703 8
v 704 282
v 705 37
v 706 170
v 707 216
v 708 114
v 709 215
v 710 180
v 711 88
v 712 267
v 713 19
v 714 139
v 715 28
v 716 78
v 717 31
v 718 130
v 719 178
v 720 124
v 721 308
v 722 282
v 723 70
v 724 26
v 725 202
v 726 86
v 727 9
v 728 296
v 729 277
v 730 221
v 731 245
v 732 202
v 733 127
v 734 301
v 735 242
v 736 142
v 737 315
v 738 31
v 739 49
v 740 231
v 741 62
v 742 179
v 743 146
v 744 181
v 745 6
v 746 195
v 747 63
v 748 154
v 749 213
v 750 181
v 751 236
v 752 306
v 753 52
v 754 25
v 755 11
v 756 205
v 757 41
v 758 39
v 759 160
v 760 146
v 761 166
v 762 159
v 763 70
v 764 199
v 765 118
v 766 306
v 767 313
v 768 39
v 769 140
v 770 45
v 771 125
v 772 39
v 773 120
v 774 230
v 775 71
v 776 84
v 777 278
v 778 8
v 779 153
v 780 58
v 781 47
v 782 6
v 783 127
v 784 227
v 785 185
v 786 211
v 787 10
v 788 101
v 789 314
v 790 149
v 791 232
v 792 100
v 793 258
v 794 125
v 795 219
v 796 125
v 797 144
v 798 305
v 799 238
v 800 176
v 801 42
v 802 38
v 803 213
v 804 243
v 805 187
v 806 256
v 807 138
v 808 240
v 809 35
v 810 41
v 811 64
v 812 201
v 813 112
v 814 105
v 815 65
v 816 106
v 817 17
v 818 150
v 819 250
v 820 235
v 821 55
v 822 77
v 823 25
v 824 136
v 825 254
v 826 69
v 827 206
v 828 196
v 829 272
v 830 219
v 831 135
v 832 193
v 833 266
v 834 121
v 835 264
v 836 274
v 837 11
v 838 298
v 839 117
v 840 189
v 841 165
v 842 258
v 843 60
v 844 255
v 845 148
v 846 144
v 847 44
v 848 192
v 849 71
v 850 30
v 851 157
v 852 1
v 853 131
v 854 303
v 855 114
v 856 129
v 857 53
v 858 158
v 859 111
v 860 312
v 861 117
v 862 198
v 863 174
v 864 60
v 865 184
v 866 13
v 867 201
v 868 117
v 869 140
v 870 248
v 871 69
v 872 232
v 873 95
v 874 223
v 875 52
v 876 75
v 877 237
v 878 204
v 879 284
v 880 96
v 881 19
v 882 214
v 883 307
v 884 241
v 885 210
v 886 84
v 887 299
v 888 270
v 889 196
v 890 124
v 891 21
v 892 175
v 893 37
v 894 162
v 895 16
v 896 250
v 897 4
v 898 142
v 899 42
v 900 57
v 901 97
v 902 44
v 903 78
v 904 166
v 905 284
v 906 120
v 907 297
v 908 295
v 909 214
v 910 162
v 911 78
v 912 287
v 913 209
v 914 61
v 915 133
v 916 297
v 917 88
v 918 209
v 919 294
v 920 73
v 921 161
v 922 73
v 923 32
v 924 204
v 925 257
v 926 149
v 927 107
v 928 87
v 929 52
v 930 83
v 931 155
v 932 178
v 933 142
v 934 134
v 935 212
v 936 45
v 937 130
v 938 208
v 939 119
v 940 105
v 941 82
v 942 265
v 943 43
v 944 116
v 945 1
v 946 89
v 947 121
v 948 68
v 949 57
v 950 65
v 951 81
v 952 32
v 953 264
v 954 221
v 955 190
v 956 250
v 957 272
v 958 54
v 959 216
v 960 254
v 961 247
v 962 111
v 963 288
v 964 200
v 965 40
v 966 309
v 967 16
v 968 281
v 969 0
v 970 229
v 971 229
v 972 53
v 973 149
v 974 226
v 975 99
v 976 7
v 977 264
v 978 49
v 979 292
v 980 251
v 981 290
v 982 147
v 983 216
v 984 237
v 985 115
v 986 279
v 987 185
v 988 15
v 989 72
v 990 224
v 991 50
v 992 169
v 993 230
v 994 48
v 995 82
v 996 192
v 997 92
v 998 273
v 999 66
v 1000 218
